##TITLE=EXAMPLE JCAMP-DX FILE FOR IMS
##JCAMP-DX=5.01                                $$ ISAS JCAMP-DX program for IMS (V.1.0)
##DATA TYPE=ION MOBILITY SPECTRUM
##DATA CLASS=XYDATA
##ORIGIN=J.I.Baumbach, H. Schmidt, ISAS Dortmund, Germany
##OWNER=COPYRIGHT (C) 2000 by ISAS Dortmund, Germany
##LONG DATE=2000/09/28 14:24:38 +0100
##SOURCE REFERENCE=P:\Hartwig\Messung\000928\H1092801
##SPECTROMETER/DATA SYSTEM=ISAS/TE/TE-lang
##NAMES=Tetrachloroethene
##CAS REGISTRY NO=127-18-4
##CONCENTRATIONS=(NCU)
(TETRACHLOROETHENE, 0.46, ppmv)
##.IMS PRESSURE=101
##.CARRIER GAS=NITROGEN
##.DRIFT GAS=NITROGEN
##.ELECTRIC FIELD=-158,-294
##.ION POLARITY=NEGATIVE
##.IONIZATION MODE=PD
##.IMS TEMPERATURE=25.0
##.SHUTTER OPENING TIME=300
##.IONIZATION CHAMBER=CYL,30,7.5
##.IONIZATION SOURCE= Partial Discharge, Needle= Stainless Steel, Gap = 4.6 mm
##.DRIFT CHAMBER=CYL,120,7.5
##.CARRIER GAS FLOW=0.2
##.DRIFT GAS FLOW=0.11
##.CARRIER GAS MOISTURE=0.03
##.SHUTTER GRID POTENTIAL=100
##.REDUCED MOBILITY=(K,A)
(2.38, <tetrachloroethene>)
(2.27, <tetrachloroethene>)
(2.06, <tetrachloroethene>)
(1.83, <tetrachloroethene>)
##XUNITS=MILLISECONDS
##YUNITS=PICOAMPERES
##XLABEL=Drift Time / ms
##YLABEL=Ion Current / pA
##FIRSTX=0
##LASTX=59.975
##FIRSTY=0. 4491087E+01
##XFACTOR=0.1830348E-02
##YFACTOR=0.1037643E-01
##NPOINTS=2400
##XYDATA=(X++(Y..Y))
0D33k31J0844J6532N189j595k202m79K87J50R4r4k02m3J42m808j8005q458M14K093Q14
273H75l8j74q4j41m8K64r9j27J22p5l3M3%J27m3j03J9k4N6R5m3j13%Q5O6r4j18N2J4%
683D61J41q5m7o1Q5K3J0q5Q5j27n2J93l8J04j22r0M3P9j8Q0j13N6P5j17N2l3Rk3j23J79
1093E41rJ22j51o5o6O6J97j69p1J0J08P5L3m7k54K12o6M7O1q9j13K07k9l7J13j46%j13
1475C67Q0J50q0l7j0J9J0M7o1J27j79n2K07K4j46m3R9k8J9L3M2j98N2NR4o1O6j13L3m7
1885D19Q4Q5rq5j41J88j9O1j41N7n7rR9K8k4q0mj4P9K4k4r8K3Q5nJ23k17m2R4j9Nn2J27
2336E41O1k30J55R9j51j17J64k8m7Q0J9j74P0J18K3m7o6N7q9MJ23j04j9N7k4K4o6J74
2718F07n2j4q5mQ9J04k12l8J84j09j8j4P9P6k21Q4J09J4L3j51m7M7L8o6P5M2j17r9K92
3114F26nn6j75J9J04L3l3o1k4%J08j9j8Rq5N7m2P5N6j08n2l3R9Q5M7j51%Q5l8R0n2j18
3551D23%R4J9j83K30rj08M7l8Q5m7j08R4l8M7nNj22j9K35q5%m2N2%L3l8j9Nrr0%J70M2
4016F21j36q0MJ04M2l8k8J0k4l7J8J37j27j9rP5K8o1j4m7J83k3r9Q9p5j13J9J60n2K8
4425E36%j22j4J13O1L3j46j9O6j08J41M2j17L3o6M2J32j41j0rM2O1P1o6r4j22J03J65
4808F07K8j74J4j22N6K50j42J0o6j4L8RO6o1j9j04P6K40j75p0q9R4J64p0o6k8P0r4N7
5204D85J22j4k07RJ46j13O6Tp5j9L3k4l3J41k11M7Q4%J23p6j31m7K21m7j4J8j8k36J74
5600D70J09j18J13j13j9Q0m7TL3J4o6J51n2NJ4j37J9J98j4j18ro1P0k8R4J04j84Nj37
5996C29J74J18r4J9j70J13J9NRq4J4j4%J59k8r4j55J41Q5l8K8Nj08Q4m7Q5j46k8J46K8
6406E55K4j09P6j56J75n7j9R0j09J9%K8o1mL3m3J04j08J12rj32J51K3j69Q5p1N2l8J04
6802E46Mo5J17j13j50J64K4K8l3%l7P5Rj79O6Q5K4j9j37J23j9j0K9j13J08j0j17N6P6
7198E32J8q0J93j97N6o1j4P0M3m7%l3k4J60k16Q0l3K3J9M7rJ9p1K4P0j03%j0L3j4L8k4
7635D89O1n6K8p5J9J13M2q9j46q0K26K8RJ4j55K4M7J4TJ41k45l7R9j9J36j36MO6l7R8
8045E97r8p1J04K8n2Rn6J04r9Q4N2m2j04O1l2K8M7q0k8J8O6J4r8J31j27J4O2RM7o1J27
8468F54r4K3L3L8J46K3R4K36K91M80L25M42N46M23M42L67K87P6J03Q0Q5k4q0j32k68J60
8823D756R4j69O6j65j08l8J51j79l01n2q4Q0j18Q0N08N27R03J633J599K202K282K535
9124A6202K357K254J830J232P44K96j22m09q00j252j416j590j458j572j350j270j124
9356A2552j040p81m61n32l20l52k92l39J13k54k92j4k02r9K4k31j03j60k64k40j17k59
9657F337k21l76j84j46j74j65k21j27k02l3j46O1k02j46p0J55P1j23P1L3J36M09J84J36
9984E057K50L53M94M23N41L62M09K55K25O2n7q5l81n31m43n26m80o59m47m80l29m00k21
10299C392p5k87j51p5r4P0r8k9j8j9K21R4Q9j27%K50p1J79p1j03L7j13K50q5j36j9O1
10667C072o1M7j04m7r8J45n6l3j4O1j36m7j9L7m2j22p5N1%J08j36rJ13q0R4j65j4N2P0
11063B592q9J93r4O5rk3N6J83J5p6R4J46J23q0K96J9J17R4K31J65MJ23j41j0O1r8q0k45
11446C632k96p1k82Rj08k54j27l3P0n6j51J0j9J4L8p1j03Q0l3p1M7O1j13o1m7J32J13
11815B310j55l8m7P1n7Q5N6J0O6%j70N2L25%k07J27J4j13P0j9Nr9l7J31P1k45j12J59
12197B253o1TM2j55q0o6K64r9nk3n2l3M7K8J70j04n1K63q0j4J03J5P0M2o1j9J23m7q0
12593B329j79J13j0o5r9j18P5J5r0k8j84J5K8Q0nj32q4J22o6J9O1k8j27M2K8K9L7j4j22
12989A642RmJ08N2j46%Ro1p5K21p1rJ13n7J70nrr5P6M7J27j23r8L3M2j60J55q0j17MN
13413A703r4k4J5j79J13j56J37K3n1j42K4N2J4nm2p5O1R9j0Nn7mP5k8p6J27j17K3mL7
13823A444o1k3J08j65O1NO1r4o6J46l3n2NQ5q5no5L2J0J46j32r4N2N6k8%Rn1L2M3O6J4
14260A421j04m7J18n2O1P6j18J9n2m2N1%n6j9k3Q0R8l7k26l3J36j4J13j41m2n7J41j4T
14656A223P1l8r4K8J23j75J23J4j79rJ69M2k30J60N2o2J0p5%M2N2l3TN2j13j0R0O1p5
15052A186P0o1j18J4J27mk17N7M7p5l3K44j50n7j4L3K4N6n2o6J0NL3L2L3q4q0J4J41r
15462A106m3m7N7p6P1Q0r9l3N7P0l7j23K03k31J60k8P0l3n1k4m7N2R9r9m3n1L7J27k8
15858A096j13mr0R4R0l3J08j65J4j8j56J84Mmj9rN6l8k3r9NM7P0N2p5j08L3RJ32Mq4Q0
16295A040p6q9J79RJ0j56o5K11q4M7n7j4r4K3J51rk69N2M7Q0R0o6J4j22Q9%p1l3P6nr
16718H99o2R9%Np1o6J32k3k9J9m2k8L7J27j45o6J27R4m7k9J5q0Rl8j4J93j03j51M7O1
17128H70J18j22m7k9NJ18m7K3nj17j9N6J23l8n6J9q5nP5rL8o2j4L8O6j04n6P5J13j41
17538G81O1J9j9p5k8J97l7m3J0j23L8N2Rp0M7L3k03K21rp1o1j4J41J04j46j13R9o1N6
17934G95l3J84j13k03J42k4M7l3N7r0k8J32o1N6l3n6n2N6J27K9j51p5MJ60q9J4l8%j8
18330G06M7k4N2j9r9P6J36J4j13j55J41o6J04M7j18j17J50o1Q9N7r0p0j08K91l7L7q9
18699G81j36L7J27N7r9q5rQ0J4J9j9m3N7j65Q5J36n1M2p1j36L3K12j09n1k9J13q9Q5J8
19095H04j97N2J4O6j0N2k02J08P5nrl3j03j9K02j9j36J55q9p6P1p1J70q5r4Q9r4J9J69
19491H04j17j13Q0P0j08J46m7m2M7O1q0P1r0q0P1j9J32o6L7k07N2O1M3j9p5Q0l8K8J0
19887F92O5q0j60J51N6L8m2r4o6Q0l3J9J08j18m7%N7J08j13Q0j98R4J0J4M2N2q5n6R9
20283F73q5L3k8Q4q0%J32L8j51Np1J04k4L8j13J4Q5Q9o6n1m7k9L3R4k8j27R9k8TJ8mQ0
20720F59l3MQ0p0q5J9q5Q0J41k8q5j4j17P5J22mL7m2q0n2J23J4j9j18rM2O1K4j08P5Q5
21144F92j04P1k9j4J0j18J46K8j55J69j17RQ5n7p5R4k3o2N2K07k40o6K9RnM7%M3r4J4
21553E46Q9L8k8j18L8%nTN7j9r9N6J60j08J4o1k8L3j9N6j4m7M7R9j55O1n2J04m3j17K02
21977F82l3j17RTO2RrK3j22L7r4J09K8nj4l3L3r4Q0N2q0J4K3l3J04j70m2J41J0J8k3n
22414E69l7p1J18L3o2l3mk8J60j04J9j04J04Rq4N6P5j97Q0J64j55j9J60j36K8P1r5J32
22796F49N2j88n2Q5K8J9K8q5l7L3Q4q0J0m7m3P6J03q9p1J13j18O2O1To6k07J69L8J4o1
23206E41q9MJ41n1Mm2rl8N6j4J98j22j46P0l7P0K31j93j13K8O1NJ9Tj04J4O2N1k8l3j03
23629D52RJ46K3j22J4j4L3Q5p6ml8L3k4M8q5P5q9O1%NJ4n7J27j69Q0N%j0O1j74M3Q9R9
24080F40j32rj0N7K8N2j23L3n1J08p6O2Mo1j55J69p5K16j41O6j88M7K8J23o2r8Q0k4p5
24476D33J74j37q4J55Q5j13N6Np1m7K4J32k9p5k3%O5J37j98J0p6J04K3mr4O1%k4P6k4
24886E41nm7J0j0Nj9N7O1j55J12l3N2n2%l2Rl3P5P6j42N2O1mj74J36j9k3m7P5J9k4J0
25323E32j23O1J04l8r4J4M7P1o1K8N2j32RJ09j9p5J4o1K3L3O6J4j04m7R9M7O1j45l8K3
25733D70%J18j36J08j22j0O1L3M7o1j50J64J0j9RNJ9M2q5J09r0j9Nm2MR9q9R4j08o1J97
26156F02nj45O5o1P6n2J08m7n6L2l2n2J03Nj9j36R4M2M3j32R9M2j79R4J9Q9L8j36j41
26552C58N6K78j93n2q5J37J4J9N1n6Nj18J03K9m7m3M3J8P1k8l3n7N2n2J04q0RrN2j18
26962D28O1J79q5l01J41J23Q0j70O6k3Q0j0j17L3M2o1Mn6K02o1n6r4J31L3m7j9rJ4p5
27358D33N6J65k31P1o1P0mR4j04l7N1p5O6R4p1o5j04K54nr8n2N2p1nR0J27q5TJ0n2J51
27782E79Mo1j08K4P5Tj08J9N1j8j42J56R9r9q0k8q0R8J79j74%j9M7Q0o6N2p0k9rj4J55
28205E88o6nk44K40Mm2K8m7P6m3K4M2j32NM7R4q4P0j36nJ65q0M2p5j0rR9O6j56P6n2q0
28642D00J03J4j4o1J08O2j32n2J04M2k8j84L8J36mk9r4J23n2M2J0o2%j08J79k4NJ32k16
29038D38Q9l8o1O6K8l7O5r4J09l8o6M2q9R9nL3j03L2L8l3R0J4j56K4NM2P1r9k4N7m7J83
29475F35j08q5j4L3K8NO1r4k3nQ4L8m2l3o1J27l3N6K8p0q5%Q0R4n1j98J27RrQ0o1%n2
29926D61k3M2J22o6p5rJ8L3J0M7j13RJ0P5k8r0rJ08k8L8O5n6j9j55J22j9J23q0o6M7r4
30349D00J88Nm7j13M7nJ9n2J37q0r9L8J22k4j17k4J18j4RN2q5n6RJ18p1P1p6j8k9J23
30759E46N1q0j31J9J50k3N1j03nj55K30L3mp6p0NK3J46K3k68J41%r4M7M3J8q9M7R0j5
31169E50l3l2n2NJ36J4j27j9K8m2K4J27k4p0o2M7L3P6o2r4rP5N7j4l3j9M7n7J0R9m7J4
31606E46q5p1J70Rj27K4j4N1%L8k4%o1j8J08n7Q5j60P1n2J03o6N7q0n7J5J36K4J8r8R
32029D94j04J37P5j88R4r9J18o1N6p0m3J13%Tl7J4K3l3r9J42m3L8N6j69RJ27J0n7j50
32426C53L7K45m2r0j17M2J04q5J41l3j93J46rJ8K4o6K8J0j41Q9o1J13n2j4O6
32767E13
##END=
