##TITLE=Example Ion Mobility Spectrum (Acetone, Pentane)
##JCAMP-DX= 5.01   $$ ISAS JCAMP-DX check program V1.1/a
##DATA TYPE=ION MOBILITY SPECTRUM
##DATA CLASS=XYDATA
##ORIGIN=J.I.Baumbach, ISAS Dortmund, Germany
##OWNER=COPYRIGHT(C) 2001
##LONG DATE=2001/02/14 15:15:42 +0100
##SOURCE REFERENCE=P:\_Vera\datei\010214\ru140202.007
##SPECTROMETER/DATA SYSTEM=ISAS/UV/UV-lang
##NAMES=Acetone
Pentane
##CAS REGISTRY NO=67-64-1
109-66-0
##CONCENTRATIONS=(NCU)
(Acetone,570,Âµg/L)
(Pentane,2.13,mg/L)
##.IMS PRESSURE=101
##.CARRIER GAS=AIR
##.DRIFT GAS=NITROGEN
##.ELECTRIC FIELD=91,326
##.ION POLARITY=POSITIVE
##.IONIZATION MODE=UV
##.IMS TEMPERATURE=24.0
##.SHUTTER OPENING TIME=1000
##.IONIZATION CHAMBER=CYL,20,7.5
##.DRIFT CHAMBER=CYL,120,7.5
##.CARRIER GAS FLOW=0.2
##.DRIFT GAS FLOW=0.3
##.CARRIER GAS MOISTURE=0.05
##.IONIZATION SOURCE=UV Lamp:10.6 eV,off-axis
##.SHUTTER GRID POTENTIAL=100
##.REPETITION RATE=100
##.REDUCED MOBILITY=(KA)
(1.73,<acetone>)
(1.44,<pentane>)
##XUNITS= MILLISECONDS
##YUNITS= PICOAMPERES
##XLABEL=Drift Time / ms
##YLABEL=Ion Current / pA
##XFACTOR=   .2032533E-02
##YFACTOR=   .1232587E-02
##FIRSTX=   .0000000    
##LASTX=   66.60000    
##MAXY=   6.345215    
##MINY=  -40.38818    
##$ASSIGNMENT TYPE= CHIME
##$CHIME TARGET= CHIMEDISP
##PEAK ASSIGNMENT= (XYWA)
20.31,-1,1.60, <load "pentane.mol"; select *; background [255,251,221]; 
wireframe 40; animation off>
24.50, -1,1.60, <load "acetone.mol"; select *; background [255,251,221]; 
wireframe 40; animation off>
36, -1, 30,  <load "no data.mol"; spacefill off; wireframe 40; 
background [255,251,221]> 
##NPOINTS=   1000
##FIRSTY=   .4882813E-01
##XYDATA=(X++(Y..Y))
0D0O41M02p76k65J16j123J446n60k40l54J162m57P9J09m93N421q060L748j272n44J293
689C13j060K12Q70o08l23J416j099p2M34J2j575J555J69l97Q62j606J182N4n2j345J076
1378A8L50r36P15l47M57j50r03O97M46j496J719j721J747j376M85P49o94OO72j337R88
2066H9l13K74L46j94l29j09O12l94l33O54m18j060J640p76l05N72j09r38L64M71j48L19
2788h5M93j394O18k2O20m74K60ol25o60J090p71J135m18k77l07R79l33o6J63m56k75L76
3542a35k85l0K38m65P78n63N91O1J35p27O26q42R63kk44n72M49p48J220j571J428q38
4264e33J018o79L6Q1j07K99J44j503J739p72j81L75p15J111k16l07L41j13o8m59J49l35
4986f95K95J60K46j86K41l82O97l28m64L43o56J226r59l66P33L66r03M10m83k70J137
5674A62q47l91J215N30j356N36l36l73O60N25m54l9M87j299O49O70q18N58J78o02M82
6363A37l01o20R58o81L80oP03r72L2N7K79m55Q55l98j38k72N85m10M91q44J37p61K108
7118H64j609O92M69q50J47o95Q97ko32J224n84p03J220j557J392p48o30J036N80j575
7774a064P02P05k40l13N37n69L63l01J98j43n56O71r1O06k65j137J406o99k54k95L84
8462c55J37P9j98QK10Q24j275k84J575o75k04j11j93p3j34K83n29P80l30k84Q96j2n15
9217c80o28J281j543K34l15m08n58M17k937j440l676k959m088l897k315k706k325m08
9807b8651j789j178j149R09J414K530L571L829K598K108P35J129J574k83J803p69J097
10365a0522J81k86J99K67P92j103O85k24P33J37P9J13K8o16J125j181J016k77q7m54q59
11054a0254J380j012k65l21J119j127m97Q71M30j131kl01j559N51j311q78p39j465j525
11677a8036l19j098j020O0j321K31N79M91J056j29O87K104k74J314R11M37M96K23R29
12300a2679O2O81K38J94n29J301m83R65M49L53K38q60J141L72m79J236m66K98l4N45m01
12989g858M96K25l58J125o91O71j129J385o66J6K34R21l88J66l88m52J191j357J170j018
13645f705M78M12j19J05L21J9O66q18N62j88j38R15p89J316p11L42m30L51L86o5Qj001
14366e083J026q1j21N8r9O1O08o08J05Q20l3n15J125k437L843K058m158j05J244r64J30
15055c126L25J63q90J143j584R21N29l27j37K36K30K95j6N7q91J78J561k397J432O03
15711a695k36r47M93J21k53J48N15q62J415j127N46J94j42l78J016n6p68J188j493J422
16367h99k44m49p4L59k91j57K62j15R9M14k86P15p19j66J121j414J933j466k75J82K4
17056a446Q93l07o33R72n51j18K08k4M34r65J147j339J040l4L82p05q7N21p7J62J63N1
17777c13q62p50K143j444J087j257P72k87J46L79p91M08P18j276P57o96Q90m30O44n75
18433g37K46m78K12k18L25J078j949O26j37j76R60l34m94R10j85j52J52p56O51l01Q0
19122f77K47O04r29P45l07O04r15n7J143j292J49L86K63O0j684L96J569l88k02l57N75
19811f7p11P96q9J24n3q9j82K7r40O06L74O32k26l72p07Q20k08o74J309j234J234q28
20533d58K42J01J76l40K93q20Q73q95J010J6r27M34k60J217r73J53L78j115Q49l98N07
21221F3n36kO67j085J226p63J01m79P64L63l65n62O20l09M55j192Q34k04L74J17l88R7
21943b04M28j59l40L09k18N44o08j9M93l15L01m97j2Q1O38n98K87m68J102j321J72L17
22665h7l98J337q74n88N05K06q42J123l11r19R21o87Q36o52K44j19L94j50j09n89O30
23353a29N89j213N05M96r99N91J74J92k91l03K63m45L62k63L36O52o04J60k06Oj72L82
24075H3M91j061m40J044J6r29M37P0k64J31L15P3M48k95p96J236p25n59J480j009L29
24764G5r5m14M70n11M45n40P05m32l29J01L82N71o08Kp6l66L13m2Q16m45M16r35J38K32
25551a27k85K8j13l73Q34j131O78M87K85J09n82m18J408j018K97l23j18N68p96J275j307
26240f22R55n8j24K43j083Q71l88o7K41M06p46K75q32O66k38N11l61o47J662o62m89Q42
26961C55r57K12L09n6M80p15j49K56K02k86N49Tj060M91K22M02p41m59L33K35l30P9K10
27716A31k82j34N82k77l53O02o91j70N94j03O7j44o26O57J01j426J367J64Mj739J908
28405B32q64Q38l64J56p45L37M69n44M53n03o02P25P13o00l80M47O8J56m75o0L17J8K8
29159a80L7m99q7K97L69o14P58p17J424q02K70m72j11M40l63m95M88r6n01L81QR72j147
29913f40R75o62j087J135M20r00J016m3p43M66k92O54r72L54J258j426k30K57M22n48
30569e86L66l7l13K27N4j61N6k32N29n63N39o81J351r93P01o19M89k6p7P3k95K36o38
31324f00J079q63o2j70J45K69J58m04o5N19o02M57j96O56j61J37j186M91M79n23N73K5
32045A56l62J218j369M56n64L20j12J12J96r48J170l78Q12j184j37L27N9J25N23j33o65
32734c78M93
32767A15
##END=
